NAME : tsp30_24.180.tour
COMMENT : Length = 180
COMMENT : Found by LKH [Keld Helsgaun]
TYPE : TOUR
DIMENSION : 30
TOUR_SECTION
1
15
29
28
8
3
14
12
23
26
9
11
13
16
27
6
2
30
21
20
25
10
24
4
19
7
22
5
17
18
-1
EOF
